99 100
12 78 1
96 29 1
94 90 1
89 47 1
69 16 1
84 42 1
96 44 1
81 16 1
72 26 1
81 18 2
68 10 1
82 47 1
83 47 1
85 4 1
83 37 1
91 40 1
53 80 1
98 3 1
10 84 1
11 44 1
96 25 1
84 13 1
69 27 1
97 59 1
97 32 1
78 35 1
74 39 1
44 92 1
8 100 1
87 13 1
68 27 1
88 29 1
37 75 1
12 99 1
82 28 1
78 21 1
75 21 1
68 46 1
7 94 1
77 24 1
67 39 1
70 5 1
66 15 1
84 39 1
3 79 1
81 25 1
70 1 1
99 15 1
75 11 1
100 8 1
24 99 1
31 3 1
91 15 1
92 2 1
53 57 1
83 3 1
81 30 1
39 7 1
45 29 1
87 14 1
79 7 1
2 25 1
98 12 1
100 38 1
85 45 1
83 4 1
73 6 1
79 72 1
99 45 1
73 44 1
91 12 1
80 19 1
86 7 1
71 46 1
82 30 1
82 27 1
81 31 1
77 10 1
82 9 1
92 47 1
85 16 1
91 36 1
90 50 1
75 28 1
96 13 1
79 23 1
70 3 1
2 21 1
23 21 1
74 22 1
94 17 1
67 26 1
13 94 1
78 33 1
87 93 1
74 42 1
76 23 1
90 5 1
97 31 1
100 100 
100 100 
100 100 
100 100 
100 100 
100 100 
100 100 
100 100 
100 100 
100 100 
100 100 
100 100 
100 100 
100 100 
100 100 
100 100 
100 100 
100 100 
100 100 
100 100 
100 100 
100 100 
100 100 
100 100 
100 100 
100 100 
100 100 
100 100 
100 100 
100 100 
100 100 
100 100 
100 100 
100 100 
100 100 
100 100 
100 100 
100 100 
100 100 
100 100 
100 100 
100 100 
100 100 
100 100 
100 100 
100 100 
100 100 
100 100 
100 100 
100 100 
100 100 
100 100 
100 100 
100 100 
100 100 
100 100 
100 100 
100 100 
100 100 
100 100 
100 100 
100 100 
100 100 
100 100 
100 100 
100 100 
100 100 
100 100 
100 100 
100 100 
100 100 
100 100 
100 100 
100 100 
100 100 
100 100 
100 100 
100 100 
100 100 
100 100 
100 100 
100 100 
100 100 
100 100 
100 100 
100 100 
100 100 
100 100 
100 100 
100 100 
100 100 
100 100 
100 100 
100 100 
100 100 
100 100 
100 100 
100 100 
100 100 
100 100 
